Route #1: 2 30 48 29 45
Route #2: 4 27 52 8 46 34
Route #3: 7 35 53 38 10 58
Route #4: 37 36 60 20 15 57 13 54 19
Route #5: 14 59 11 31
Route #6: 5 47 21 61 28 62
Route #7: 22 64 42 41 56 23 49 24
Route #8: 32 25 55 18 50 44 3
Route #9: 6 33 1 43 63 16 51
Route #10: 17 40 9 39 12
Route #11: 26
Cost 852